problems/csplib-prob019/MagicSquares-models/01_noch_lvlPruned/O0/minion/model-05-solution000001.eprime-solution
language ESSENCE' 1.0

letting ms_Function1DPartial_Flags be
        [true, true, true, true, true, true, true, true, true, true, true, true, true, true, true, true, true, true,
         true, true, true, true, true, true, true;
             int(1..25)]
letting ms_Function1DPartial_Values be
        [1, 2, 13, 24, 25, 3, 22, 19, 6, 15, 23, 16, 10, 11, 5, 21, 7, 9, 20, 8, 17, 18, 14, 4, 12; int(1..25)]
