problems/csplib-prob019/MagicSquares-models/noch/O2/minion/model-05-solution000001.solution
language Essence 1.3

letting ms be
        function(1 --> 1, 2 --> 2, 3 --> 13, 4 --> 24, 5 --> 25, 6 --> 3, 7 --> 22, 8 --> 19, 9 --> 6, 10 --> 15,
                 11 --> 23, 12 --> 16, 13 --> 10, 14 --> 11, 15 --> 5, 16 --> 21, 17 --> 7, 18 --> 9, 19 --> 20,
                 20 --> 8, 21 --> 17, 22 --> 18, 23 --> 14, 24 --> 4, 25 --> 12)
